(set-logic HORN)
(declare-fun assign_286_27_11_abs01 (Int Int Int Int Int Int Int) Bool)
(declare-fun assert_277_26_11_abs01 (Int Int Int Int Int Int Int) Bool)
(declare-fun assert_256_25_11_abs01 (Int Int Int Int Int Int Int) Bool)
(declare-fun while_289_24_1_abs01 (Int Int Int Int Int Int Int) Bool)
(declare-fun assign_206_23_8_abs01 (Int Int Int Int Int Int Int) Bool)
(declare-fun assert_200_21_8_abs01 (Int Int Int Int Int Int Int) Bool)
(declare-fun assign_158_19_5_abs01 (Int Int Int Int Int Int Int) Bool)
(declare-fun arrayassign_149_18_5_abs01 (Int Int Int Int Int Int Int) Bool)
(declare-fun assert_132_17_12_abs01 (Int Int Int Int Int Int Int) Bool)
(declare-fun while_161_16_1_abs01 (Int Int Int Int Int Int Int) Bool)
(declare-fun assign_85_15_1_abs01 (Int Int Int Int Int Int Int) Bool)
(declare-fun assign_79_12_8_abs01 (Int Int Int Int Int Int Int) Bool)
(declare-fun assign_67_11_1_abs01 (Int Int Int Int Int Int Int) Bool)
(declare-fun end_abs01 (Int Int Int Int Int Int Int) Bool)
(declare-fun start_abs01 (Int Int Int Int Int Int Int) Bool)
(assert (forall ((Nb Int) (Na Int) (i Int) (vabs_f_f Int) (vabs_s_f_f Int) (b_select Int) (a_select Int)) (start_abs01 vabs_f_f b_select vabs_s_f_f a_select Nb Na i)))
(assert (forall ((i Int) (Na Int) (Nb Int) (vabs_0_f_f Int) (vabs_0_s_f_f Int) (a_select Int) (b_select Int)) (=> (start_abs01 vabs_0_f_f b_select vabs_0_s_f_f a_select Nb Na i) (assign_67_11_1_abs01 vabs_0_f_f b_select vabs_0_s_f_f a_select Nb Na i))))
(assert (forall ((rnd Int) (i Int) (Na Int) (Nb Int) (vabs_0_f_f Int) (vabs_0_s_f_f Int) (a_select Int) (b_select Int)) (=> (assign_67_11_1_abs01 vabs_0_f_f b_select vabs_0_s_f_f a_select Nb Na i) (assign_79_12_8_abs01 vabs_0_f_f b_select vabs_0_s_f_f a_select Nb rnd i))))
(assert (forall ((rnd Int) (i Int) (Na Int) (Nb Int) (vabs_0_f_f Int) (vabs_0_s_f_f Int) (a_select Int) (b_select Int)) (=> (assign_79_12_8_abs01 vabs_0_f_f b_select vabs_0_s_f_f a_select Nb Na i) (assign_85_15_1_abs01 vabs_0_f_f b_select vabs_0_s_f_f a_select rnd Na i))))
(assert (forall ((i Int) (Na Int) (Nb Int) (vabs_0_f_f Int) (vabs_0_s_f_f Int) (a_select Int) (b_select Int)) (=> (assign_85_15_1_abs01 vabs_0_f_f b_select vabs_0_s_f_f a_select Nb Na i) (while_161_16_1_abs01 vabs_0_f_f b_select vabs_0_s_f_f a_select Nb Na Na))))
(assert (forall ((Nb Int) (Na Int) (i Int) (vabs_0_f_f Int) (vabs_0_s_f_f Int) (b_select Int) (a_select Int)) (=> (and (while_161_16_1_abs01 vabs_0_f_f b_select vabs_0_s_f_f a_select Nb Na i) (< i (+ Na Nb))) (assert_132_17_12_abs01 vabs_0_f_f b_select vabs_0_s_f_f a_select Nb Na i))))
(assert (forall ((Nb Int) (Na Int) (i Int) (vabs_0_f_f Int) (vabs_0_s_f_f Int) (b_select Int) (a_select Int)) (=> (and (while_161_16_1_abs01 vabs_0_f_f b_select vabs_0_s_f_f a_select Nb Na i) (not (< i (+ Na Nb)))) (assert_200_21_8_abs01 vabs_0_f_f b_select vabs_0_s_f_f a_select Nb Na i))))
(assert (forall ((k Int) (i Int) (Na Int) (Nb Int) (a_select Int) (b_select Int)) (=> (and (assert_132_17_12_abs01 (- k Na) b_select k a_select Nb Na i) (<= Na k) (< k i)) (= a_select b_select))))
(assert (forall ((i Int) (Na Int) (Nb Int) (vabs_0_f_f Int) (vabs_0_s_f_f Int) (a_select Int) (b_select Int)) (=> (assert_132_17_12_abs01 vabs_0_f_f b_select vabs_0_s_f_f a_select Nb Na i) (arrayassign_149_18_5_abs01 vabs_0_f_f b_select vabs_0_s_f_f a_select Nb Na i))))
(assert (forall ((i Int) (Na Int) (Nb Int) (vabs_0_f_f Int) (vabs_0_s_f_f Int) (a_select Int) (b_select_0 Int) (b_select Int)) (=> (and (=> (= vabs_0_f_f (- i Na)) (= b_select b_select_0)) (arrayassign_149_18_5_abs01 (- i Na) b_select vabs_0_s_f_f a_select Nb Na i) (arrayassign_149_18_5_abs01 vabs_0_f_f b_select_0 vabs_0_s_f_f a_select Nb Na i)) (assign_158_19_5_abs01 vabs_0_f_f b_select_0 vabs_0_s_f_f (ite (= i vabs_0_s_f_f) b_select a_select) Nb Na i))))
(assert (forall ((i Int) (Na Int) (Nb Int) (vabs_0_f_f Int) (vabs_0_s_f_f Int) (a_select Int) (b_select Int)) (=> (assign_158_19_5_abs01 vabs_0_f_f b_select vabs_0_s_f_f a_select Nb Na i) (while_161_16_1_abs01 vabs_0_f_f b_select vabs_0_s_f_f a_select Nb Na (+ i 1)))))
(assert (forall ((k Int) (i Int) (Na Int) (Nb Int) (a_select Int) (b_select Int)) (=> (and (assert_200_21_8_abs01 (- k Na) b_select k a_select Nb Na i) (<= Na k) (< k (+ Na Nb))) (= a_select b_select))))
(assert (forall ((i Int) (Na Int) (Nb Int) (vabs_0_f_f Int) (vabs_0_s_f_f Int) (a_select Int) (b_select Int)) (=> (assert_200_21_8_abs01 vabs_0_f_f b_select vabs_0_s_f_f a_select Nb Na i) (assign_206_23_8_abs01 vabs_0_f_f b_select vabs_0_s_f_f a_select Nb Na i))))
(assert (forall ((i Int) (Na Int) (Nb Int) (vabs_0_f_f Int) (vabs_0_s_f_f Int) (a_select Int) (b_select Int)) (=> (assign_206_23_8_abs01 vabs_0_f_f b_select vabs_0_s_f_f a_select Nb Na i) (while_289_24_1_abs01 vabs_0_f_f b_select vabs_0_s_f_f a_select Nb Na Na))))
(assert (forall ((Nb Int) (Na Int) (i Int) (vabs_0_f_f Int) (vabs_0_s_f_f Int) (b_select Int) (a_select Int)) (=> (and (while_289_24_1_abs01 vabs_0_f_f b_select vabs_0_s_f_f a_select Nb Na i) (< i (+ Na Nb))) (assert_256_25_11_abs01 vabs_0_f_f b_select vabs_0_s_f_f a_select Nb Na i))))
(assert (forall ((Nb Int) (Na Int) (i Int) (vabs_0_f_f Int) (vabs_0_s_f_f Int) (b_select Int) (a_select Int)) (=> (and (while_289_24_1_abs01 vabs_0_f_f b_select vabs_0_s_f_f a_select Nb Na i) (not (< i (+ Na Nb)))) (end_abs01 vabs_0_f_f b_select vabs_0_s_f_f a_select Nb Na i))))
(assert (forall ((k Int) (i Int) (Na Int) (Nb Int) (a_select Int) (b_select Int)) (=> (and (assert_256_25_11_abs01 (- k Na) b_select k a_select Nb Na i) (<= Na k) (< k (+ Na Nb))) (= a_select b_select))))
(assert (forall ((i Int) (Na Int) (Nb Int) (vabs_0_f_f Int) (vabs_0_s_f_f Int) (a_select Int) (b_select Int)) (=> (assert_256_25_11_abs01 vabs_0_f_f b_select vabs_0_s_f_f a_select Nb Na i) (assert_277_26_11_abs01 vabs_0_f_f b_select vabs_0_s_f_f a_select Nb Na i))))
(assert (forall ((i Int) (Na Int) (Nb Int) (a_select Int) (b_select Int)) (=> (assert_277_26_11_abs01 (- i Na) b_select i a_select Nb Na i) (= a_select b_select))))
(assert (forall ((i Int) (Na Int) (Nb Int) (vabs_0_f_f Int) (vabs_0_s_f_f Int) (a_select Int) (b_select Int)) (=> (assert_277_26_11_abs01 vabs_0_f_f b_select vabs_0_s_f_f a_select Nb Na i) (assign_286_27_11_abs01 vabs_0_f_f b_select vabs_0_s_f_f a_select Nb Na i))))
(assert (forall ((i Int) (Na Int) (Nb Int) (vabs_0_f_f Int) (vabs_0_s_f_f Int) (a_select Int) (b_select Int)) (=> (assign_286_27_11_abs01 vabs_0_f_f b_select vabs_0_s_f_f a_select Nb Na i) (while_289_24_1_abs01 vabs_0_f_f b_select vabs_0_s_f_f a_select Nb Na (+ i 1)))))
(check-sat)